; benchmark generated from python API
(set-info :status unknown)
(declare-fun DISJ_W_S1_R_B1 () Bool)
(declare-fun R_B1_V4 () Bool)
(declare-fun R_B1_V5 () Bool)
(declare-fun W_S2_V5 () Bool)
(declare-fun R_B1_V2 () Bool)
(declare-fun W_S2_V2 () Bool)
(declare-fun W_S2_V3 () Bool)
(declare-fun W_S2_V1 () Bool)
(declare-fun W_S1_V4 () Bool)
(declare-fun W_S1_V5 () Bool)
(declare-fun W_S1_V2 () Bool)
(declare-fun W_S1_V1 () Bool)
(declare-fun R_S1_V4 () Bool)
(declare-fun R_S1_V5 () Bool)
(declare-fun R_S1_V2 () Bool)
(declare-fun R_S1_V3 () Bool)
(declare-fun R_S1_V1 () Bool)
(declare-fun R_B1_V3 () Bool)
(declare-fun R_S2_V4 () Bool)
(declare-fun R_S2_V5 () Bool)
(declare-fun R_S2_V2 () Bool)
(declare-fun R_S2_V3 () Bool)
(declare-fun R_S2_V1 () Bool)
(declare-fun DISJ_W_S2_R_S2 () Bool)
(declare-fun DISJ_W_S2_R_S1 () Bool)
(declare-fun DISJ_W_S1_W_S2 () Bool)
(declare-fun DISJ_W_S1_R_S2 () Bool)
(declare-fun DISJ_W_S1_R_S1 () Bool)
(declare-fun W_S2_V4 () Bool)
(declare-fun W_S1_V3 () Bool)
(declare-fun R_B1_V1 () Bool)
(declare-fun DISJ_W_S2_R_B1 () Bool)
(assert
 (let (($x1962 (not DISJ_W_S1_R_B1)))
 (let (($x3024 (not R_B1_V4)))
 (let (($x1786 (not (and W_S2_V5 R_B1_V5))))
 (let (($x1603 (not (and W_S2_V2 R_B1_V2))))
 (let (($x2375 (forall ((V1_0 Int) )(forall ((V3_0 Int) )(forall ((V2_0 Int) )(forall ((V5_0 Int) )(forall ((V4_0 Int) )(forall ((MW_S1_V1 Bool) )(forall ((MW_S1_V3 Bool) )(forall ((MW_S1_V2 Bool) )(forall ((MW_S1_V5 Bool) )(forall ((MW_S1_V4 Bool) )(forall ((MW_S2_V1 Bool) )(forall ((MW_S2_V3 Bool) )(forall ((MW_S2_V2 Bool) )(forall ((MW_S2_V5 Bool) )(forall ((MW_S2_V4 Bool) )(forall ((S1_V1_!1026 Int) )(forall ((S1_V1_!1038 Int) )(forall ((S1_V1_!1043 Int) )(forall ((B1_!1025 Bool) )(forall ((B1_!1031 Bool) )(forall ((B1_!1037 Bool) )(forall ((S2_V5_!1035 Int) )(forall ((S1_V3_!1027 Int) )(forall ((S1_V3_!1039 Int) )(forall ((S1_V3_!1044 Int) )(forall ((S1_V2_!1028 Int) )(forall ((S1_V2_!1040 Int) )(forall ((S1_V2_!1045 Int) )(forall ((S2_V4_!1036 Int) )(forall ((S1_V5_!1029 Int) )(forall ((S1_V5_!1041 Int) )(forall ((S1_V5_!1046 Int) )(forall ((S2_V1_!1032 Int) )(forall ((S1_V4_!1030 Int) )(forall ((S1_V4_!1042 Int) )(forall ((S1_V4_!1047 Int) )(forall ((S2_V2_!1034 Int) )(forall ((S2_V3_!1033 Int) )(let ((?x3304 (ite MW_S1_V1 S1_V1_!1038 V1_0)))
 (let ((?x5251 (+ 1 ?x3304)))
 (let ((?x1003 (ite MW_S1_V1 S1_V1_!1043 ?x5251)))
 (let ((?x2977 (+ 1 (ite MW_S1_V1 S1_V1_!1026 V1_0))))
 (let ((?x3457 (ite MW_S2_V1 S2_V1_!1032 ?x2977)))
 (let (($x214 (and (= ?x3457 ?x1003) (= (ite MW_S2_V3 S2_V3_!1033 (ite MW_S1_V3 S1_V3_!1027 V3_0)) (ite MW_S1_V3 S1_V3_!1044 V3_0)) (= (ite MW_S2_V2 S2_V2_!1034 (ite MW_S1_V2 S1_V2_!1028 V2_0)) (ite MW_S1_V2 S1_V2_!1045 V2_0)) (= (ite MW_S2_V5 S2_V5_!1035 (ite MW_S1_V5 S1_V5_!1029 V5_0)) (ite MW_S1_V5 S1_V5_!1046 V5_0)) (= (ite MW_S2_V4 S2_V4_!1036 (ite MW_S1_V4 S1_V4_!1030 V4_0)) (ite MW_S1_V4 S1_V4_!1047 V4_0)))))
 (let (($x2332 (not B1_!1031)))
 (let (($x5021 (and (not (<= V2_0 V1_0)) B1_!1025 (not (<= (ite MW_S1_V2 S1_V2_!1028 V2_0) ?x2977)) $x2332 (>= ?x3457 (+ (- 1) (ite MW_S2_V2 S2_V2_!1034 (ite MW_S1_V2 S1_V2_!1028 V2_0)))) B1_!1037 (not (<= (ite MW_S1_V2 S1_V2_!1040 V2_0) ?x5251)) (>= ?x1003 (+ (- 1) (ite MW_S1_V2 S1_V2_!1045 V2_0))))))
 (let (($x2128 (= S1_V4_!1047 S1_V4_!1042)))
 (let (($x2666 (and (or (not R_S1_V1) (= ?x3304 (+ (- 1) V1_0))) (or (not R_S1_V3) (= (ite MW_S1_V3 S1_V3_!1039 V3_0) V3_0)) (or (not R_S1_V2) (= (ite MW_S1_V2 S1_V2_!1040 V2_0) V2_0)) (or (not R_S1_V5) (= (ite MW_S1_V5 S1_V5_!1041 V5_0) V5_0)) (or (not R_S1_V4) (= (ite MW_S1_V4 S1_V4_!1042 V4_0) V4_0)))))
 (let (($x5865 (not $x2666)))
 (let (($x953 (and (or (not R_S1_V1) (= V1_0 ?x5251)) (or (not R_S1_V3) (= V3_0 (ite MW_S1_V3 S1_V3_!1039 V3_0))) (or (not R_S1_V2) (= V2_0 (ite MW_S1_V2 S1_V2_!1040 V2_0))) (or (not R_S1_V5) (= V5_0 (ite MW_S1_V5 S1_V5_!1041 V5_0))) (or (not R_S1_V4) (= V4_0 (ite MW_S1_V4 S1_V4_!1042 V4_0))))))
 (let (($x3370 (not $x953)))
 (let (($x1888 (and (or (not R_B1_V3) (= V3_0 (ite MW_S1_V3 S1_V3_!1027 V3_0))) (or (not R_B1_V2) (= V2_0 (ite MW_S1_V2 S1_V2_!1028 V2_0))) (or (not R_B1_V5) (= V5_0 (ite MW_S1_V5 S1_V5_!1029 V5_0))))))
 (let (($x3814 (not $x1888)))
 (let (($x1480 (and (= S1_V1_!1026 S1_V1_!1038) (or $x5865 (= S1_V1_!1043 S1_V1_!1026)) (or $x5865 (= S1_V1_!1043 S1_V1_!1038)) (or $x3814 (= B1_!1025 B1_!1031)) (= B1_!1037 B1_!1025) (or $x3814 (= B1_!1037 B1_!1031)) (= S1_V3_!1027 S1_V3_!1039) (or $x5865 (= S1_V3_!1044 S1_V3_!1027)) (or $x5865 (= S1_V3_!1044 S1_V3_!1039)) (= S1_V2_!1028 S1_V2_!1040) (or $x5865 (= S1_V2_!1045 S1_V2_!1028)) (or $x5865 (= S1_V2_!1045 S1_V2_!1040)) (or $x3370 (= S1_V5_!1029 S1_V5_!1046)) (= S1_V5_!1041 S1_V5_!1029) (or $x3370 (= S1_V5_!1041 S1_V5_!1046)) (= S1_V4_!1030 S1_V4_!1042) (or $x5865 (= S1_V4_!1047 S1_V4_!1030)) (or $x5865 $x2128) (or (not MW_S1_V1) W_S1_V1) (or (not MW_S1_V2) W_S1_V2) (or (not MW_S1_V5) W_S1_V5) (or (not MW_S1_V4) W_S1_V4) (or (not MW_S2_V1) W_S2_V1) (or (not MW_S2_V3) W_S2_V3) (or (not MW_S2_V2) W_S2_V2) (or (not MW_S2_V5) W_S2_V5))))
 (or (not $x1480) (not $x5021) $x214))))))))))))))))))
 )
 )
 )
 )
 )
 )
 )
 )
 )
 )
 )
 )
 )
 )
 )
 )
 )
 )
 )
 )
 )
 )
 )
 )
 )
 )
 )
 )
 )
 )
 )
 )
 )
 )
 )
 )
 )
 ))
 (let (($x3372 (not (and W_S2_V3 R_B1_V3))))
 (let (($x4164 (and W_S2_V5 R_S2_V5)))
 (let (($x6034 (and W_S2_V2 R_S2_V2)))
 (let (($x2279 (and W_S2_V3 R_S2_V3)))
 (let (($x274 (and W_S2_V1 R_S2_V1)))
 (let (($x3698 (= DISJ_W_S2_R_S2 (not (or $x274 $x2279 $x6034 $x4164 R_S2_V4)))))
 (let (($x3308 (and W_S2_V5 R_S1_V5)))
 (let (($x1276 (and W_S2_V2 R_S1_V2)))
 (let (($x3173 (and W_S2_V3 R_S1_V3)))
 (let (($x1716 (and W_S2_V1 R_S1_V1)))
 (let (($x512 (= DISJ_W_S2_R_S1 (not (or $x1716 $x3173 $x1276 $x3308 R_S1_V4)))))
 (let (($x5855 (and W_S1_V5 W_S2_V5)))
 (let (($x2793 (and W_S1_V2 W_S2_V2)))
 (let (($x2476 (and W_S1_V1 W_S2_V1)))
 (let (($x2759 (= DISJ_W_S1_W_S2 (not (or $x2476 W_S2_V3 $x2793 $x5855 W_S1_V4)))))
 (let (($x4925 (or R_B1_V3 (and W_S1_V2 R_B1_V2) (and W_S1_V5 R_B1_V5))))
 (let (($x1415 (= DISJ_W_S1_R_B1 (not $x4925))))
 (let (($x3466 (and W_S1_V4 R_S2_V4)))
 (let (($x3842 (and W_S1_V5 R_S2_V5)))
 (let (($x2124 (and W_S1_V2 R_S2_V2)))
 (let (($x2797 (and W_S1_V1 R_S2_V1)))
 (let (($x2283 (= DISJ_W_S1_R_S2 (not (or $x2797 R_S2_V3 $x2124 $x3842 $x3466)))))
 (let (($x3624 (and W_S1_V4 R_S1_V4)))
 (let (($x1659 (and W_S1_V5 R_S1_V5)))
 (let (($x871 (and W_S1_V2 R_S1_V2)))
 (let (($x4268 (and W_S1_V1 R_S1_V1)))
 (let (($x2382 (= DISJ_W_S1_R_S1 (not (or $x4268 R_S1_V3 $x871 $x1659 $x3624)))))
 (let (($x5955 (not R_B1_V1)))
 (let (($x2022 (and DISJ_W_S2_R_B1 $x5955 W_S1_V3 W_S2_V4 $x2382 $x2283 $x1415 $x2759 $x512 $x3698 $x3372 $x2375 $x1603 $x1786 $x3024)))
 (and $x2022 $x1962))))))))))))))))))))))))))))))))))))
(check-sat)
